# Generated by ConicBenchmarkUtilities.jl
VER
2

OBJSENSE
MIN

VAR
325 1
F 325

INT
60
22
23
24
25
26
27
28
29
30
31
32
33
34
35
36
37
38
39
40
41
42
43
44
45
46
47
48
49
50
51
106
110
118
122
137
138
140
144
165
166
168
172
182
186
196
200
215
216
225
226
228
232
251
252
254
258
266
270
278
282

CON
896 852
L= 1
L= 1
L= 1
L= 1
L= 1
L= 1
L= 1
L= 1
L= 1
L= 1
L= 1
L= 1
L= 1
L= 1
L= 1
L= 1
L= 1
L= 1
L= 1
L= 1
L= 1
EXP 3
L+ 1
L+ 1
EXP 3
L+ 1
L+ 1
L= 1
L= 1
L= 1
L= 1
L= 1
L= 1
L= 1
L= 1
L+ 1
L+ 1
L+ 1
L+ 1
L+ 1
L+ 1
L+ 1
L+ 1
EXP 3
L+ 1
L+ 1
EXP 3
L+ 1
L+ 1
L= 1
L= 1
L= 1
L= 1
L= 1
L= 1
L= 1
L= 1
L+ 1
L+ 1
L+ 1
L+ 1
L+ 1
L+ 1
L+ 1
L+ 1
L= 1
L= 1
L= 1
L= 1
L= 1
L= 1
L= 1
L= 1
L= 1
L= 1
L+ 1
L+ 1
L+ 1
L+ 1
L+ 1
L+ 1
L+ 1
L+ 1
EXP 3
L+ 1
L+ 1
EXP 3
L+ 1
L+ 1
L= 1
L= 1
L= 1
L= 1
L= 1
L= 1
L= 1
L= 1
L+ 1
L+ 1
L+ 1
L+ 1
L+ 1
L+ 1
L+ 1
L+ 1
L= 1
L= 1
L= 1
L= 1
L= 1
L= 1
L= 1
L= 1
L= 1
L= 1
L= 1
L= 1
L= 1
L= 1
L= 1
L= 1
L+ 1
L+ 1
L+ 1
L+ 1
L+ 1
L+ 1
L+ 1
L+ 1
L+ 1
L+ 1
L+ 1
L+ 1
EXP 3
L+ 1
L+ 1
EXP 3
L+ 1
L+ 1
L= 1
L= 1
L= 1
L= 1
L= 1
L= 1
L= 1
L= 1
L+ 1
L+ 1
L+ 1
L+ 1
L+ 1
L+ 1
L+ 1
L+ 1
EXP 3
L+ 1
L+ 1
EXP 3
L+ 1
L+ 1
L= 1
L= 1
L= 1
L= 1
L= 1
L= 1
L= 1
L= 1
L+ 1
L+ 1
L+ 1
L+ 1
L+ 1
L+ 1
L+ 1
L+ 1
EXP 3
L+ 1
L+ 1
EXP 3
L+ 1
L+ 1
L= 1
L= 1
L= 1
L= 1
L= 1
L= 1
L= 1
L= 1
L+ 1
L+ 1
L+ 1
L+ 1
L+ 1
L+ 1
L+ 1
L+ 1
L= 1
L= 1
L= 1
L= 1
L= 1
L= 1
L= 1
L= 1
L= 1
L= 1
L+ 1
L+ 1
L+ 1
L+ 1
L+ 1
L+ 1
L+ 1
L+ 1
L= 1
L= 1
L= 1
L= 1
L= 1
L= 1
L= 1
L= 1
L= 1
L= 1
L+ 1
L+ 1
L+ 1
L+ 1
L+ 1
L+ 1
L+ 1
L+ 1
EXP 3
L+ 1
L+ 1
EXP 3
L+ 1
L+ 1
L= 1
L= 1
L= 1
L= 1
L= 1
L= 1
L= 1
L= 1
L+ 1
L+ 1
L+ 1
L+ 1
L+ 1
L+ 1
L+ 1
L+ 1
L= 1
L= 1
L= 1
L= 1
L= 1
L= 1
L= 1
L= 1
L= 1
L= 1
L= 1
L= 1
L= 1
L= 1
L= 1
L= 1
L+ 1
L+ 1
L+ 1
L+ 1
L+ 1
L+ 1
L+ 1
L+ 1
L+ 1
L+ 1
L+ 1
L+ 1
EXP 3
L+ 1
L+ 1
EXP 3
L+ 1
L+ 1
L= 1
L= 1
L= 1
L= 1
L= 1
L= 1
L= 1
L= 1
L+ 1
L+ 1
L+ 1
L+ 1
L+ 1
L+ 1
L+ 1
L+ 1
EXP 3
L+ 1
L+ 1
EXP 3
L+ 1
L+ 1
L= 1
L= 1
L= 1
L= 1
L= 1
L= 1
L= 1
L= 1
L+ 1
L+ 1
L+ 1
L+ 1
L+ 1
L+ 1
L+ 1
L+ 1
EXP 3
L+ 1
L+ 1
EXP 3
L+ 1
L+ 1
EXP 3
L+ 1
L+ 1
EXP 3
L+ 1
L+ 1
L= 1
L= 1
L= 1
L= 1
L= 1
L= 1
L= 1
L= 1
L= 1
L= 1
L= 1
L= 1
L+ 1
L+ 1
L+ 1
L+ 1
L+ 1
L+ 1
L+ 1
L+ 1
L+ 1
L+ 1
L+ 1
L+ 1
L= 1
L= 1
L= 1
L= 1
L= 1
L= 1
L= 1
L= 1
L= 1
L= 1
L= 1
L= 1
L= 1
L= 1
L= 1
L= 1
L= 1
L= 1
L= 1
L= 1
L= 1
L= 1
L= 1
L= 1
L= 1
L= 1
L= 1
L= 1
L= 1
L= 1
L+ 1
L+ 1
L+ 1
L+ 1
L+ 1
L+ 1
L+ 1
L+ 1
L+ 1
L+ 1
L+ 1
L+ 1
L+ 1
L+ 1
L+ 1
L+ 1
L+ 1
L+ 1
L+ 1
L+ 1
L+ 1
L+ 1
L+ 1
L+ 1
L+ 1
L+ 1
L+ 1
L+ 1
L+ 1
L+ 1
L+ 1
L+ 1
L+ 1
L+ 1
L+ 1
L+ 1
L+ 1
L+ 1
L+ 1
L+ 1
L+ 1
L+ 1
L+ 1
L+ 1
L+ 1
L+ 1
L+ 1
L+ 1
L+ 1
L+ 1
L+ 1
L+ 1
L+ 1
L+ 1
L+ 1
L+ 1
L+ 1
L+ 1
L+ 1
L+ 1
L+ 1
L+ 1
L+ 1
L+ 1
L+ 1
L+ 1
L+ 1
L+ 1
L+ 1
L+ 1
L+ 1
L+ 1
L+ 1
L+ 1
L+ 1
L= 1
L= 1
L+ 1
L+ 1
L+ 1
L+ 1
L+ 1
L+ 1
L+ 1
L+ 1
L+ 1
L+ 1
L+ 1
L+ 1
L+ 1
L+ 1
L+ 1
L+ 1
L+ 1
L+ 1
L+ 1
L+ 1
L+ 1
L+ 1
L+ 1
L+ 1
L+ 1
L+ 1
L+ 1
L+ 1
L+ 1
L+ 1
L+ 1
L+ 1
L+ 1
L+ 1
L+ 1
L+ 1
L+ 1
L+ 1
L+ 1
L+ 1
L+ 1
L+ 1
L+ 1
L+ 1
L+ 1
L+ 1
L+ 1
L+ 1
L+ 1
L+ 1
L+ 1
L+ 1
L+ 1
L+ 1
L+ 1
L+ 1
L+ 1
L+ 1
L+ 1
L+ 1
L+ 1
L+ 1
L+ 1
L+ 1
L+ 1
L+ 1
L+ 1
L+ 1
L+ 1
L+ 1
L+ 1
L+ 1
L+ 1
L+ 1
L+ 1
L+ 1
L+ 1
L+ 1
L+ 1
L+ 1
L+ 1
L+ 1
L+ 1
L+ 1
L+ 1
L+ 1
L+ 1
L+ 1
L+ 1
L+ 1
L+ 1
L+ 1
L+ 1
L+ 1
L+ 1
L+ 1
L+ 1
L+ 1
L+ 1
L+ 1
L+ 1
L+ 1
L+ 1
L+ 1
L+ 1
L+ 1
L+ 1
L+ 1
L+ 1
L+ 1
L+ 1
L+ 1
L+ 1
L+ 1
L+ 1
L+ 1
L+ 1
L+ 1
L+ 1
L+ 1
L+ 1
L+ 1
L+ 1
L+ 1
L+ 1
L+ 1
L+ 1
L+ 1
L+ 1
L+ 1
L+ 1
L+ 1
L+ 1
L+ 1
L+ 1
L+ 1
L+ 1
L+ 1
L+ 1
L+ 1
L+ 1
L+ 1
L+ 1
L+ 1
L+ 1
L+ 1
L+ 1
L+ 1
L+ 1
L+ 1
L+ 1
L+ 1
L+ 1
L+ 1
L+ 1
L+ 1
L+ 1
L+ 1
L+ 1
L+ 1
L+ 1
L+ 1
L+ 1
L+ 1
L+ 1
L+ 1
L+ 1
L+ 1
L+ 1
L+ 1
L+ 1
L+ 1
L+ 1
L+ 1
L+ 1
L+ 1
L+ 1
L+ 1
L+ 1
L+ 1
L+ 1
L+ 1
L+ 1
L+ 1
L+ 1
L+ 1
L+ 1
L+ 1
L+ 1
L+ 1
L+ 1
L+ 1
L+ 1
L+ 1
L+ 1
L+ 1
L+ 1
L+ 1
L+ 1
L+ 1
L+ 1
L+ 1
L+ 1
L+ 1
L+ 1
L+ 1
L+ 1
L+ 1
L+ 1
L+ 1
L+ 1
L+ 1
L+ 1
L+ 1
L+ 1
L+ 1
L+ 1
L+ 1
L+ 1
L+ 1
L+ 1
L+ 1
L+ 1
L+ 1
L+ 1
L+ 1
L+ 1
L+ 1
L+ 1
L+ 1
L+ 1
L+ 1
L+ 1
L+ 1
L+ 1
L+ 1
L+ 1
L+ 1
L+ 1
L+ 1
L+ 1
L+ 1
L+ 1
L+ 1
L+ 1
L+ 1
L+ 1
L+ 1
L+ 1
L+ 1
L+ 1
L+ 1
L+ 1
L+ 1
L+ 1
L+ 1
L+ 1
L+ 1
L+ 1
L+ 1
L+ 1
L+ 1
L+ 1
L+ 1
L+ 1
L+ 1
L+ 1
L+ 1
L+ 1
L+ 1
L+ 1
L+ 1
L+ 1
L+ 1
L+ 1
L+ 1
L+ 1
L+ 1
L+ 1
L+ 1
L+ 1
L+ 1
L+ 1
L+ 1
L+ 1
L+ 1
L+ 1
L+ 1
L+ 1
L+ 1
L+ 1
L+ 1
L+ 1
L+ 1
L+ 1
L+ 1
L+ 1
L+ 1
L+ 1
L+ 1
L+ 1
L+ 1
L+ 1
L+ 1
L+ 1
L+ 1
L+ 1
L+ 1
L+ 1
L+ 1
L+ 1
L+ 1
L+ 1
L+ 1
L+ 1
L+ 1
L+ 1
L+ 1
L+ 1
L+ 1
L+ 1
L+ 1
L+ 1
L+ 1
L+ 1
L+ 1
L+ 1
L+ 1
L+ 1
L+ 1
L+ 1
L+ 1
L+ 1
L+ 1
L+ 1
L+ 1
L+ 1
L+ 1
L+ 1
L+ 1
L+ 1
L+ 1
L+ 1
L+ 1
L+ 1
L+ 1
L+ 1
L+ 1
L+ 1
L+ 1
L+ 1
L+ 1
L+ 1
L+ 1
L+ 1
L+ 1
L+ 1
L+ 1
L+ 1
L+ 1
L+ 1
L+ 1
L+ 1
L+ 1
L+ 1
L+ 1
L+ 1
L+ 1
L+ 1
L+ 1
L+ 1
L+ 1
L+ 1
L+ 1
L+ 1
L+ 1
L+ 1
L+ 1
L+ 1
L+ 1

OBJACOORD
1
52 -1.0

ACOORD
1514
0 0 -1.0
1 0 1.0
556 0 1.0
557 0 -1.0
0 1 -1.0
2 1 1.0
558 1 1.0
559 1 -1.0
0 2 5.0
5 2 -1.0
570 2 1.0
0 3 10.0
6 3 -1.0
571 3 1.0
0 4 -2.0
129 4 1.0
580 4 1.0
581 4 -1.0
0 5 -1.0
130 5 1.0
582 5 1.0
583 5 -1.0
0 6 500.0
17 6 1.0
249 6 1.0
608 6 1.0
0 7 600.0
18 7 1.0
250 7 1.0
609 7 1.0
0 8 350.0
19 8 1.0
275 8 1.0
610 8 1.0
0 9 400.0
20 9 1.0
276 9 1.0
611 9 1.0
0 10 -10.0
297 10 1.0
616 10 1.0
617 10 -1.0
0 11 -5.0
298 11 1.0
618 11 1.0
619 11 -1.0
0 12 -5.0
15 12 -1.0
620 12 1.0
621 12 -1.0
0 13 -5.0
16 13 -1.0
622 13 1.0
623 13 -1.0
0 14 80.0
299 14 1.0
636 14 1.0
0 15 130.0
300 15 1.0
637 15 1.0
0 16 110.0
329 16 1.0
638 16 1.0
0 17 120.0
330 17 1.0
639 17 1.0
0 18 110.0
355 18 1.0
640 18 1.0
0 19 130.0
356 19 1.0
641 19 1.0
0 20 80.0
395 20 1.0
642 20 1.0
0 21 90.0
396 21 1.0
643 21 1.0
0 22 -5.0
409 22 5.0
454 22 -1.0
455 22 -1.0
484 22 1.0
836 22 1.0
837 22 -1.0
0 23 -4.0
410 23 4.0
454 23 -1.0
455 23 -1.0
485 23 1.0
838 23 1.0
839 23 -1.0
0 24 -8.0
411 24 8.0
456 24 -1.0
457 24 -1.0
486 24 1.0
840 24 1.0
841 24 -1.0
0 25 -7.0
412 25 7.0
456 25 -1.0
457 25 -1.0
487 25 1.0
842 25 1.0
843 25 -1.0
0 26 -6.0
413 26 6.0
458 26 -1.0
459 26 -1.0
488 26 1.0
844 26 1.0
845 26 -1.0
0 27 -9.0
414 27 9.0
458 27 -1.0
459 27 -1.0
489 27 1.0
846 27 1.0
847 27 -1.0
0 28 -10.0
415 28 10.0
460 28 -1.0
461 28 -1.0
490 28 1.0
848 28 1.0
849 28 -1.0
0 29 -9.0
416 29 9.0
460 29 -1.0
461 29 -1.0
491 29 1.0
850 29 1.0
851 29 -1.0
0 30 -6.0
417 30 6.0
462 30 -1.0
463 30 -1.0
492 30 1.0
852 30 1.0
853 30 -1.0
0 31 -10.0
418 31 10.0
462 31 -1.0
463 31 -1.0
493 31 1.0
854 31 1.0
855 31 -1.0
0 32 -7.0
419 32 7.0
464 32 -1.0
465 32 -1.0
494 32 1.0
856 32 1.0
857 32 -1.0
0 33 -7.0
420 33 7.0
464 33 -1.0
465 33 -1.0
495 33 1.0
858 33 1.0
859 33 -1.0
0 34 -4.0
421 34 4.0
466 34 -1.0
467 34 -1.0
496 34 1.0
860 34 1.0
861 34 -1.0
0 35 -3.0
422 35 3.0
466 35 -1.0
467 35 -1.0
497 35 1.0
862 35 1.0
863 35 -1.0
0 36 -5.0
423 36 5.0
468 36 -1.0
469 36 -1.0
498 36 1.0
864 36 1.0
865 36 -1.0
0 37 -6.0
424 37 6.0
468 37 -1.0
469 37 -1.0
499 37 1.0
866 37 1.0
867 37 -1.0
0 38 -2.0
425 38 2.0
470 38 -1.0
471 38 -1.0
500 38 1.0
868 38 1.0
869 38 -1.0
0 39 -5.0
426 39 5.0
470 39 -1.0
471 39 -1.0
501 39 1.0
870 39 1.0
871 39 -1.0
0 40 -4.0
427 40 4.0
472 40 -1.0
473 40 -1.0
502 40 1.0
872 40 1.0
873 40 -1.0
0 41 -7.0
428 41 7.0
472 41 -1.0
473 41 -1.0
503 41 1.0
874 41 1.0
875 41 -1.0
0 42 -3.0
429 42 3.0
474 42 -1.0
475 42 -1.0
504 42 1.0
876 42 1.0
877 42 -1.0
0 43 -9.0
430 43 9.0
474 43 -1.0
475 43 -1.0
505 43 1.0
878 43 1.0
879 43 -1.0
0 44 -7.0
431 44 7.0
476 44 -1.0
477 44 -1.0
506 44 1.0
880 44 1.0
881 44 -1.0
0 45 -2.0
432 45 2.0
476 45 -1.0
477 45 -1.0
507 45 1.0
882 45 1.0
883 45 -1.0
0 46 -3.0
433 46 3.0
478 46 -1.0
479 46 -1.0
508 46 1.0
884 46 1.0
885 46 -1.0
0 47 -1.0
434 47 1.0
478 47 -1.0
479 47 -1.0
509 47 1.0
886 47 1.0
887 47 -1.0
0 48 -2.0
435 48 2.0
480 48 -1.0
481 48 -1.0
510 48 1.0
888 48 1.0
889 48 -1.0
0 49 -6.0
436 49 6.0
480 49 -1.0
481 49 -1.0
511 49 1.0
890 49 1.0
891 49 -1.0
0 50 -4.0
437 50 4.0
482 50 -1.0
483 50 -1.0
512 50 1.0
892 50 1.0
893 50 -1.0
0 51 -8.0
438 51 8.0
482 51 -1.0
483 51 -1.0
513 51 1.0
894 51 1.0
895 51 -1.0
0 52 -1.0
1 53 -1.0
35 53 1.0
560 53 1.0
1 54 -1.0
61 54 1.0
562 54 1.0
2 55 -1.0
36 55 1.0
561 55 1.0
2 56 -1.0
62 56 1.0
563 56 1.0
3 57 -1.0
37 57 1.0
564 57 1.0
3 58 -1.0
63 58 1.0
566 58 1.0
3 59 1.0
5 59 1.0
568 59 1.0
4 60 -1.0
38 60 1.0
565 60 1.0
4 61 -1.0
64 61 1.0
567 61 1.0
4 62 1.0
6 62 1.0
569 62 1.0
5 63 -1.0
7 63 1.0
572 63 1.0
6 64 -1.0
8 64 1.0
573 64 1.0
7 65 -1.0
79 65 1.0
574 65 1.0
7 66 -1.0
105 66 1.0
576 66 1.0
7 67 -1.0
127 67 1.0
578 67 1.0
8 68 -1.0
80 68 1.0
575 68 1.0
8 69 -1.0
106 69 1.0
577 69 1.0
8 70 -1.0
128 70 1.0
579 70 1.0
9 71 1.0
81 71 1.0
584 71 1.0
9 72 -1.0
159 72 1.0
590 72 1.0
9 73 -1.0
185 73 1.0
592 73 1.0
10 74 1.0
82 74 1.0
585 74 1.0
10 75 -1.0
160 75 1.0
591 75 1.0
10 76 -1.0
186 76 1.0
593 76 1.0
11 77 1.0
131 77 1.0
588 77 1.0
11 78 -1.0
229 78 1.0
594 78 1.0
11 79 -1.0
247 79 1.0
596 79 1.0
11 80 -1.0
273 80 1.0
598 80 1.0
12 81 1.0
132 81 1.0
589 81 1.0
12 82 -1.0
230 82 1.0
595 82 1.0
12 83 -1.0
248 83 1.0
597 83 1.0
12 84 -1.0
274 84 1.0
599 84 1.0
13 85 1.0
213 85 1.0
604 85 1.0
13 86 -1.0
353 86 1.0
612 86 1.0
13 87 -1.0
391 87 1.0
614 87 1.0
14 88 1.0
214 88 1.0
605 88 1.0
14 89 -1.0
354 89 1.0
613 89 1.0
14 90 -1.0
392 90 1.0
615 90 1.0
15 91 -1.0
231 91 1.0
606 91 1.0
15 92 1.0
393 92 1.0
624 92 1.0
16 93 -1.0
232 93 1.0
607 93 1.0
16 94 1.0
394 94 1.0
625 94 1.0
17 95 -1.0
626 95 1.0
17 96 -1.0
628 96 1.0
18 97 -1.0
627 97 1.0
18 98 -1.0
629 98 1.0
19 99 -1.0
630 99 1.0
19 100 -1.0
632 100 1.0
19 101 -1.0
634 101 1.0
20 102 -1.0
631 102 1.0
20 103 -1.0
633 103 1.0
20 104 -1.0
635 104 1.0
23 105 -1.0
25 105 -1.0
21 106 1.0
22 106 1.0
24 106 1.0
39 106 40.0
41 106 -40.0
43 106 3.71357206670431
45 106 -3.71357206670431
439 106 -1.0
484 106 -1.0
485 106 1.0
514 106 1.0
530 106 1.0
532 106 1.0
534 106 1.0
776 106 1.0
777 106 -1.0
21 107 1.0
24 107 1.0
35 107 -1.0
39 107 -1.0
644 107 1.0
25 108 -1.0
37 108 -1.0
43 108 -1.0
652 108 1.0
28 109 -1.0
30 109 -1.0
26 110 1.0
27 110 1.0
29 110 1.0
40 110 40.0
42 110 -40.0
44 110 3.71357206670431
46 110 -3.71357206670431
439 110 1.0
485 110 -1.0
515 110 1.0
531 110 1.0
533 110 1.0
535 110 1.0
778 110 1.0
779 110 -1.0
26 111 1.0
29 111 1.0
36 111 -1.0
40 111 -1.0
645 111 1.0
30 112 -1.0
38 112 -1.0
44 112 -1.0
653 112 1.0
31 113 1.0
35 113 -1.0
41 113 -1.0
646 113 1.0
32 114 1.0
36 114 -1.0
42 114 -1.0
647 114 1.0
33 115 1.0
37 115 -1.0
45 115 -1.0
654 115 1.0
34 116 1.0
38 116 -1.0
46 116 -1.0
655 116 1.0
49 117 -1.0
51 117 -1.2
47 118 1.0
48 118 1.0
50 118 1.0
65 118 40.0
67 118 -40.0
69 118 4.45628648004517
71 118 -4.45628648004517
440 118 -1.0
486 118 -1.0
487 118 1.0
514 118 1.0
530 118 1.0
532 118 1.0
534 118 1.0
780 118 1.0
781 118 -1.0
47 119 1.0
50 119 1.0
61 119 -1.0
65 119 -1.0
648 119 1.0
51 120 -1.0
63 120 -1.0
69 120 -1.0
656 120 1.0
54 121 -1.0
56 121 -1.2
52 122 1.0
53 122 1.0
55 122 1.0
66 122 40.0
68 122 -40.0
70 122 4.45628648004517
72 122 -4.45628648004517
440 122 1.0
487 122 -1.0
515 122 1.0
531 122 1.0
533 122 1.0
535 122 1.0
782 122 1.0
783 122 -1.0
52 123 1.0
55 123 1.0
62 123 -1.0
66 123 -1.0
649 123 1.0
56 124 -1.0
64 124 -1.0
70 124 -1.0
657 124 1.0
57 125 1.0
61 125 -1.0
67 125 -1.0
650 125 1.0
58 126 1.0
62 126 -1.0
68 126 -1.0
651 126 1.0
59 127 1.0
63 127 -1.0
71 127 -1.0
658 127 1.0
60 128 1.0
64 128 -1.0
72 128 -1.0
659 128 1.0
73 129 -0.75
79 129 -1.0
83 129 -1.0
660 129 1.0
73 130 1.0
81 130 -1.0
87 130 -1.0
676 130 1.0
74 131 -0.75
80 131 -1.0
84 131 -1.0
661 131 1.0
74 132 1.0
82 132 -1.0
88 132 -1.0
677 132 1.0
75 133 1.0
79 133 -1.0
85 133 -1.0
662 133 1.0
76 134 1.0
80 134 -1.0
86 134 -1.0
663 134 1.0
77 135 1.0
81 135 -1.0
89 135 -1.0
678 135 1.0
78 136 1.0
82 136 -1.0
90 136 -1.0
679 136 1.0
83 137 4.45628648004517
85 137 -4.45628648004517
87 137 3.34221486003388
89 137 -3.34221486003388
441 137 -1.0
488 137 -1.0
489 137 1.0
516 137 -1.0
530 137 -1.0
536 137 1.0
538 137 1.0
784 137 1.0
785 137 -1.0
84 138 4.45628648004517
86 138 -4.45628648004517
88 138 3.34221486003388
90 138 -3.34221486003388
441 138 1.0
489 138 -1.0
517 138 -1.0
531 138 -1.0
537 138 1.0
539 138 1.0
786 138 1.0
787 138 -1.0
93 139 -1.0
95 139 -1.5
91 140 1.0
92 140 1.0
94 140 1.0
109 140 4.45628648004517
111 140 -4.45628648004517
113 140 2.54515263975353
115 140 -2.54515263975353
442 140 -1.0
490 140 -1.0
491 140 1.0
522 140 -1.0
532 140 -1.0
540 140 1.0
788 140 1.0
789 140 -1.0
91 141 1.0
94 141 1.0
105 141 -1.0
109 141 -1.0
664 141 1.0
95 142 -1.0
107 142 -1.0
113 142 -1.0
680 142 1.0
98 143 -1.0
100 143 -1.5
96 144 1.0
97 144 1.0
99 144 1.0
110 144 4.45628648004517
112 144 -4.45628648004517
114 144 2.54515263975353
116 144 -2.54515263975353
442 144 1.0
491 144 -1.0
523 144 -1.0
533 144 -1.0
541 144 1.0
790 144 1.0
791 144 -1.0
96 145 1.0
99 145 1.0
106 145 -1.0
110 145 -1.0
665 145 1.0
100 146 -1.0
108 146 -1.0
114 146 -1.0
681 146 1.0
101 147 1.0
105 147 -1.0
111 147 -1.0
666 147 1.0
102 148 1.0
106 148 -1.0
112 148 -1.0
667 148 1.0
103 149 1.0
107 149 -1.0
115 149 -1.0
684 149 1.0
104 150 1.0
108 150 -1.0
116 150 -1.0
685 150 1.0
107 151 1.0
211 151 1.0
586 151 1.0
108 152 1.0
212 152 1.0
587 152 1.0
117 153 -1.0
127 153 -1.0
133 153 -1.0
668 153 1.0
117 154 1.0
119 154 1.0
131 154 -1.0
141 154 -1.0
688 154 1.0
118 155 -1.0
128 155 -1.0
134 155 -1.0
669 155 1.0
118 156 1.0
120 156 1.0
132 156 -1.0
142 156 -1.0
689 156 1.0
119 157 -0.5
129 157 -1.0
137 157 -1.0
672 157 1.0
120 158 -0.5
130 158 -1.0
138 158 -1.0
673 158 1.0
121 159 1.0
127 159 -1.0
135 159 -1.0
670 159 1.0
122 160 1.0
128 160 -1.0
136 160 -1.0
671 160 1.0
123 161 1.0
129 161 -1.0
139 161 -1.0
674 161 1.0
124 162 1.0
130 162 -1.0
140 162 -1.0
675 162 1.0
125 163 1.0
131 163 -1.0
143 163 -1.0
690 163 1.0
126 164 1.0
132 164 -1.0
144 164 -1.0
691 164 1.0
133 165 4.45628648004517
135 165 -4.45628648004517
137 165 30.0
139 165 -30.0
141 165 15.0
143 165 -15.0
443 165 -1.0
492 165 -1.0
493 165 1.0
526 165 -1.0
534 165 -1.0
542 165 1.0
544 165 1.0
546 165 1.0
792 165 1.0
793 165 -1.0
134 166 4.45628648004517
136 166 -4.45628648004517
138 166 30.0
140 166 -30.0
142 166 15.0
144 166 -15.0
443 166 1.0
493 166 -1.0
527 166 -1.0
535 166 -1.0
543 166 1.0
545 166 1.0
547 166 1.0
794 166 1.0
795 166 -1.0
147 167 -1.0
149 167 -1.25
145 168 1.0
146 168 1.0
148 168 1.0
163 168 3.34221486003388
165 168 -3.34221486003388
167 168 1.83548069293539
169 168 -1.83548069293539
444 168 -1.0
494 168 -1.0
495 168 1.0
516 168 1.0
518 168 -1.0
536 168 -1.0
548 168 1.0
796 168 1.0
797 168 -1.0
145 169 1.0
148 169 1.0
159 169 -1.0
163 169 -1.0
692 169 1.0
149 170 -1.0
161 170 -1.0
167 170 -1.0
712 170 1.0
152 171 -1.0
154 171 -1.25
150 172 1.0
151 172 1.0
153 172 1.0
164 172 3.34221486003388
166 172 -3.34221486003388
168 172 1.83548069293539
170 172 -1.83548069293539
444 172 1.0
495 172 -1.0
517 172 1.0
519 172 -1.0
537 172 -1.0
549 172 1.0
798 172 1.0
799 172 -1.0
150 173 1.0
153 173 1.0
160 173 -1.0
164 173 -1.0
693 173 1.0
154 174 -1.0
162 174 -1.0
168 174 -1.0
713 174 1.0
155 175 1.0
159 175 -1.0
165 175 -1.0
694 175 1.0
156 176 1.0
160 176 -1.0
166 176 -1.0
695 176 1.0
157 177 1.0
161 177 -1.0
169 177 -1.0
716 177 1.0
158 178 1.0
162 178 -1.0
170 178 -1.0
717 178 1.0
161 179 1.0
295 179 1.0
600 179 1.0
162 180 1.0
296 180 1.0
601 180 1.0
173 181 -1.0
175 181 -0.9
171 182 1.0
172 182 1.0
174 182 1.0
189 182 3.34221486003388
191 182 -3.34221486003388
193 182 1.32154609891348
195 182 -1.32154609891348
445 182 -1.0
496 182 -1.0
497 182 1.0
516 182 1.0
520 182 -1.0
538 182 -1.0
550 182 1.0
800 182 1.0
801 182 -1.0
171 183 1.0
174 183 1.0
185 183 -1.0
189 183 -1.0
696 183 1.0
175 184 -1.0
187 184 -1.0
193 184 -1.0
720 184 1.0
178 185 -1.0
180 185 -0.9
176 186 1.0
177 186 1.0
179 186 1.0
190 186 3.34221486003388
192 186 -3.34221486003388
194 186 1.32154609891348
196 186 -1.32154609891348
445 186 1.0
497 186 -1.0
517 186 1.0
521 186 -1.0
539 186 -1.0
551 186 1.0
802 186 1.0
803 186 -1.0
176 187 1.0
179 187 1.0
186 187 -1.0
190 187 -1.0
697 187 1.0
180 188 -1.0
188 188 -1.0
194 188 -1.0
721 188 1.0
181 189 1.0
185 189 -1.0
191 189 -1.0
698 189 1.0
182 190 1.0
186 190 -1.0
192 190 -1.0
699 190 1.0
183 191 1.0
187 191 -1.0
195 191 -1.0
724 191 1.0
184 192 1.0
188 192 -1.0
196 192 -1.0
725 192 1.0
187 193 1.0
327 193 1.0
602 193 1.0
188 194 1.0
328 194 1.0
603 194 1.0
199 195 -1.0
201 195 -1.0
197 196 1.0
198 196 1.0
200 196 1.0
215 196 2.54515263975353
217 196 -2.54515263975353
219 196 1.26558121681553
221 196 -1.26558121681553
446 196 -1.0
498 196 -1.0
499 196 1.0
522 196 1.0
524 196 -1.0
540 196 -1.0
552 196 1.0
554 196 1.0
804 196 1.0
805 196 -1.0
197 197 1.0
200 197 1.0
211 197 -1.0
215 197 -1.0
682 197 1.0
201 198 -1.0
213 198 -1.0
219 198 -1.0
728 198 1.0
204 199 -1.0
206 199 -1.0
202 200 1.0
203 200 1.0
205 200 1.0
216 200 2.54515263975353
218 200 -2.54515263975353
220 200 1.26558121681553
222 200 -1.26558121681553
446 200 1.0
499 200 -1.0
523 200 1.0
525 200 -1.0
541 200 -1.0
553 200 1.0
555 200 1.0
806 200 1.0
807 200 -1.0
202 201 1.0
205 201 1.0
212 201 -1.0
216 201 -1.0
683 201 1.0
206 202 -1.0
214 202 -1.0
220 202 -1.0
729 202 1.0
207 203 1.0
211 203 -1.0
217 203 -1.0
686 203 1.0
208 204 1.0
212 204 -1.0
218 204 -1.0
687 204 1.0
209 205 1.0
213 205 -1.0
221 205 -1.0
730 205 1.0
210 206 1.0
214 206 -1.0
222 206 -1.0
731 206 1.0
223 207 -0.9
229 207 -1.0
233 207 -1.0
700 207 1.0
223 208 1.0
231 208 -1.0
237 208 -1.0
732 208 1.0
224 209 -0.9
230 209 -1.0
234 209 -1.0
701 209 1.0
224 210 1.0
232 210 -1.0
238 210 -1.0
733 210 1.0
225 211 1.0
229 211 -1.0
235 211 -1.0
702 211 1.0
226 212 1.0
230 212 -1.0
236 212 -1.0
703 212 1.0
227 213 1.0
231 213 -1.0
239 213 -1.0
734 213 1.0
228 214 1.0
232 214 -1.0
240 214 -1.0
735 214 1.0
233 215 15.0
235 215 -15.0
237 215 13.5
239 215 -13.5
447 215 -1.0
500 215 -1.0
501 215 1.0
526 215 1.0
528 215 -1.0
542 215 -1.0
808 215 1.0
809 215 -1.0
234 216 15.0
236 216 -15.0
238 216 13.5
240 216 -13.5
447 216 1.0
501 216 -1.0
527 216 1.0
529 216 -1.0
543 216 -1.0
810 216 1.0
811 216 -1.0
241 217 -0.6
247 217 -1.0
251 217 -1.0
704 217 1.0
241 218 1.0
249 218 -1.0
255 218 -1.0
736 218 1.0
242 219 -0.6
248 219 -1.0
252 219 -1.0
705 219 1.0
242 220 1.0
250 220 -1.0
256 220 -1.0
737 220 1.0
243 221 1.0
247 221 -1.0
253 221 -1.0
706 221 1.0
244 222 1.0
248 222 -1.0
254 222 -1.0
707 222 1.0
245 223 1.0
249 223 -1.0
257 223 -1.0
738 223 1.0
246 224 1.0
250 224 -1.0
258 224 -1.0
739 224 1.0
251 225 15.0
253 225 -15.0
255 225 9.0
257 225 -9.0
448 225 -1.0
502 225 -1.0
503 225 1.0
526 225 1.0
544 225 -1.0
812 225 1.0
813 225 -1.0
252 226 15.0
254 226 -15.0
256 226 9.0
258 226 -9.0
448 226 1.0
503 226 -1.0
527 226 1.0
545 226 -1.0
814 226 1.0
815 226 -1.0
261 227 -1.0
263 227 -1.1
259 228 1.0
260 228 1.0
262 228 1.0
277 228 15.0
279 228 -15.0
281 228 3.04984759446376
283 228 -3.04984759446376
449 228 -1.0
504 228 -1.0
505 228 1.0
526 228 1.0
546 228 -1.0
816 228 1.0
817 228 -1.0
259 229 1.0
262 229 1.0
273 229 -1.0
277 229 -1.0
708 229 1.0
263 230 -1.0
275 230 -1.0
281 230 -1.0
740 230 1.0
266 231 -1.0
268 231 -1.1
264 232 1.0
265 232 1.0
267 232 1.0
278 232 15.0
280 232 -15.0
282 232 3.04984759446376
284 232 -3.04984759446376
449 232 1.0
505 232 -1.0
527 232 1.0
547 232 -1.0
818 232 1.0
819 232 -1.0
264 233 1.0
267 233 1.0
274 233 -1.0
278 233 -1.0
709 233 1.0
268 234 -1.0
276 234 -1.0
282 234 -1.0
741 234 1.0
269 235 1.0
273 235 -1.0
279 235 -1.0
710 235 1.0
270 236 1.0
274 236 -1.0
280 236 -1.0
711 236 1.0
271 237 1.0
275 237 -1.0
283 237 -1.0
742 237 1.0
272 238 1.0
276 238 -1.0
284 238 -1.0
743 238 1.0
285 239 -0.9
295 239 -1.0
301 239 -1.0
714 239 1.0
285 240 1.0
287 240 1.0
299 240 -1.0
309 240 -1.0
760 240 1.0
286 241 -0.9
296 241 -1.0
302 241 -1.0
715 241 1.0
286 242 1.0
288 242 1.0
300 242 -1.0
310 242 -1.0
761 242 1.0
287 243 -1.0
297 243 -1.0
305 243 -1.0
752 243 1.0
288 244 -1.0
298 244 -1.0
306 244 -1.0
753 244 1.0
289 245 1.0
295 245 -1.0
303 245 -1.0
718 245 1.0
290 246 1.0
296 246 -1.0
304 246 -1.0
719 246 1.0
291 247 1.0
297 247 -1.0
307 247 -1.0
754 247 1.0
292 248 1.0
298 248 -1.0
308 248 -1.0
755 248 1.0
293 249 1.0
299 249 -1.0
311 249 -1.0
762 249 1.0
294 250 1.0
300 250 -1.0
312 250 -1.0
763 250 1.0
301 251 1.83548069293539
303 251 -1.83548069293539
305 251 20.0
307 251 -20.0
309 251 20.0
311 251 -20.0
450 251 -1.0
506 251 -1.0
507 251 1.0
518 251 1.0
548 251 -1.0
820 251 1.0
821 251 -1.0
302 252 1.83548069293539
304 252 -1.83548069293539
306 252 20.0
308 252 -20.0
310 252 20.0
312 252 -20.0
450 252 1.0
507 252 -1.0
519 252 1.0
549 252 -1.0
822 252 1.0
823 252 -1.0
315 253 -1.0
317 253 -1.0
313 254 1.0
314 254 1.0
316 254 1.0
331 254 1.32154609891348
333 254 -1.32154609891348
335 254 0.842233385663186
337 254 -0.842233385663186
451 254 -1.0
508 254 -1.0
509 254 1.0
520 254 1.0
550 254 -1.0
824 254 1.0
825 254 -1.0
313 255 1.0
316 255 1.0
327 255 -1.0
331 255 -1.0
722 255 1.0
317 256 -1.0
329 256 -1.0
335 256 -1.0
764 256 1.0
320 257 -1.0
322 257 -1.0
318 258 1.0
319 258 1.0
321 258 1.0
332 258 1.32154609891348
334 258 -1.32154609891348
336 258 0.842233385663186
338 258 -0.842233385663186
451 258 1.0
509 258 -1.0
521 258 1.0
551 258 -1.0
826 258 1.0
827 258 -1.0
318 259 1.0
321 259 1.0
328 259 -1.0
332 259 -1.0
723 259 1.0
322 260 -1.0
330 260 -1.0
336 260 -1.0
765 260 1.0
323 261 1.0
327 261 -1.0
333 261 -1.0
726 261 1.0
324 262 1.0
328 262 -1.0
334 262 -1.0
727 262 1.0
325 263 1.0
329 263 -1.0
337 263 -1.0
766 263 1.0
326 264 1.0
330 264 -1.0
338 264 -1.0
767 264 1.0
341 265 -1.0
343 265 -0.7
339 266 1.0
340 266 1.0
342 266 1.0
357 266 1.26558121681553
359 266 -1.26558121681553
361 266 0.572481933717686
363 266 -0.572481933717686
452 266 -1.0
510 266 -1.0
511 266 1.0
524 266 1.0
552 266 -1.0
828 266 1.0
829 266 -1.0
339 267 1.0
342 267 1.0
353 267 -1.0
357 267 -1.0
744 267 1.0
343 268 -1.0
355 268 -1.0
361 268 -1.0
768 268 1.0
346 269 -1.0
348 269 -0.7
344 270 1.0
345 270 1.0
347 270 1.0
358 270 1.26558121681553
360 270 -1.26558121681553
362 270 0.572481933717686
364 270 -0.572481933717686
452 270 1.0
511 270 -1.0
525 270 1.0
553 270 -1.0
830 270 1.0
831 270 -1.0
344 271 1.0
347 271 1.0
354 271 -1.0
358 271 -1.0
745 271 1.0
348 272 -1.0
356 272 -1.0
362 272 -1.0
769 272 1.0
349 273 1.0
353 273 -1.0
359 273 -1.0
746 273 1.0
350 274 1.0
354 274 -1.0
360 274 -1.0
747 274 1.0
351 275 1.0
355 275 -1.0
363 275 -1.0
770 275 1.0
352 276 1.0
356 276 -1.0
364 276 -1.0
771 276 1.0
367 277 -1.0
369 277 -0.65
365 278 1.0
366 278 1.0
368 278 1.0
375 278 1.0
376 278 1.0
378 278 1.0
397 278 1.26558121681553
399 278 -1.26558121681553
401 278 33.5
403 278 -33.5
405 278 2.30162356062425
407 278 -2.30162356062425
453 278 -1.0
512 278 -1.0
513 278 1.0
524 278 1.0
528 278 1.0
554 278 -1.0
832 278 1.0
833 278 -1.0
365 279 1.0
368 279 1.0
391 279 -1.0
397 279 -1.0
748 279 1.0
369 280 -1.0
379 280 -1.0
395 280 -1.0
405 280 -1.0
772 280 1.0
372 281 -1.0
374 281 -0.65
370 282 1.0
371 282 1.0
373 282 1.0
380 282 1.0
381 282 1.0
383 282 1.0
398 282 1.26558121681553
400 282 -1.26558121681553
402 282 33.5
404 282 -33.5
406 282 2.30162356062425
408 282 -2.30162356062425
453 282 1.0
513 282 -1.0
525 282 1.0
529 282 1.0
555 282 -1.0
834 282 1.0
835 282 -1.0
370 283 1.0
373 283 1.0
392 283 -1.0
398 283 -1.0
749 283 1.0
374 284 -1.0
384 284 -1.0
396 284 -1.0
406 284 -1.0
773 284 1.0
377 285 -1.0
379 285 -0.65
375 286 1.0
378 286 1.0
393 286 -1.0
401 286 -1.0
756 286 1.0
382 287 -1.0
384 287 -0.65
380 288 1.0
383 288 1.0
394 288 -1.0
402 288 -1.0
757 288 1.0
385 289 1.0
391 289 -1.0
399 289 -1.0
750 289 1.0
386 290 1.0
392 290 -1.0
400 290 -1.0
751 290 1.0
387 291 1.0
393 291 -1.0
403 291 -1.0
758 291 1.0
388 292 1.0
394 292 -1.0
404 292 -1.0
759 292 1.0
389 293 1.0
395 293 -1.0
407 293 -1.0
774 293 1.0
390 294 1.0
396 294 -1.0
408 294 -1.0
775 294 1.0
409 295 1.0
410 296 1.0
411 297 1.0
412 298 1.0
413 299 1.0
414 300 1.0
415 301 1.0
416 302 1.0
417 303 1.0
418 304 1.0
419 305 1.0
420 306 1.0
421 307 1.0
422 308 1.0
423 309 1.0
424 310 1.0
425 311 1.0
426 312 1.0
427 313 1.0
428 314 1.0
429 315 1.0
430 316 1.0
431 317 1.0
432 318 1.0
433 319 1.0
434 320 1.0
435 321 1.0
436 322 1.0
437 323 1.0
438 324 1.0

BCOORD
166
41 40.0
42 40.0
45 3.71357206670431
46 3.71357206670431
67 40.0
68 40.0
71 4.45628648004517
72 4.45628648004517
85 4.45628648004517
86 4.45628648004517
89 3.34221486003388
90 3.34221486003388
111 4.45628648004517
112 4.45628648004517
115 2.54515263975353
116 2.54515263975353
135 4.45628648004517
136 4.45628648004517
139 30.0
140 30.0
143 15.0
144 15.0
165 3.34221486003388
166 3.34221486003388
169 1.83548069293539
170 1.83548069293539
191 3.34221486003388
192 3.34221486003388
195 1.32154609891348
196 1.32154609891348
217 2.54515263975353
218 2.54515263975353
221 1.26558121681553
222 1.26558121681553
235 15.0
236 15.0
239 13.5
240 13.5
253 15.0
254 15.0
257 9.0
258 9.0
279 15.0
280 15.0
283 3.04984759446376
284 3.04984759446376
303 1.83548069293539
304 1.83548069293539
307 20.0
308 20.0
311 20.0
312 20.0
333 1.32154609891348
334 1.32154609891348
337 0.842233385663186
338 0.842233385663186
359 1.26558121681553
360 1.26558121681553
363 0.572481933717686
364 0.572481933717686
399 1.26558121681553
400 1.26558121681553
403 33.5
404 33.5
407 2.30162356062425
408 2.30162356062425
454 1.0
455 1.0
456 1.0
457 1.0
458 1.0
459 1.0
460 1.0
461 1.0
462 1.0
463 1.0
464 1.0
465 1.0
466 1.0
467 1.0
468 1.0
469 1.0
470 1.0
471 1.0
472 1.0
473 1.0
474 1.0
475 1.0
476 1.0
477 1.0
478 1.0
479 1.0
480 1.0
481 1.0
482 1.0
483 1.0
514 -1.0
515 -1.0
557 40.0
559 40.0
581 30.0
583 30.0
617 20.0
619 20.0
621 20.0
623 20.0
777 1.0
779 1.0
781 1.0
783 1.0
785 1.0
787 1.0
789 1.0
791 1.0
793 1.0
795 1.0
797 1.0
799 1.0
801 1.0
803 1.0
805 1.0
807 1.0
809 1.0
811 1.0
813 1.0
815 1.0
817 1.0
819 1.0
821 1.0
823 1.0
825 1.0
827 1.0
829 1.0
831 1.0
833 1.0
835 1.0
837 1.0
839 1.0
841 1.0
843 1.0
845 1.0
847 1.0
849 1.0
851 1.0
853 1.0
855 1.0
857 1.0
859 1.0
861 1.0
863 1.0
865 1.0
867 1.0
869 1.0
871 1.0
873 1.0
875 1.0
877 1.0
879 1.0
881 1.0
883 1.0
885 1.0
887 1.0
889 1.0
891 1.0
893 1.0
895 1.0
